# workflow_revision: jhtvs-ft0806-explicit-r5-eox-v1
# job_id: R5EOX_A05_OX
# job_class: optfreq
# state_id: tfsi__acetonitrile_oxidized_q0_m2
# solvent_id: S001
# formal_charge: 0
# multiplicity: 2
# geometry_key: explicit_r5:tfsi__acetonitrile
# geometry_sha256: 208007c50dd64678a9ce36aa1a180163232ccc92baeb633e95a8087fac41b5a9
# method_id: T2_wB97X-D3_def2-TZVP_OptFreq_def2-TZVPD-SP_SMD_ExplicitR5_Hirshfeld_v1
# smd_registry_sha256: 2d98f12b7af91524f569c997bafb0e96f3b2d5662ac2d31db41c8afd52a1fda7
# smd_registry_row_sha256: 33991649687f2d2b981d6e03785961ad9457eb27eac9b175c78aef6ac9c44c11
# smd_payload_sha256: 2ac42ed3e22fe59dd5791310aba80df0f44a97fce93a0f99bfc908a252e00b57
# exact_reuse_key: 9b6e77a5f03ea40d8993b53c2ff0e7d326c29a5fc5dd6da83d35de750e761a8e
# thermochemistry_convention_id: orca_298.15K_1atm_QuasiRRHO_project_1M_v1
%pal nprocs 8 end
%maxcore 3000
* xyz 0 2
O       -1.2103250000      -0.2405050000      -2.4464090000
S       -1.0333600000      -0.3696030000      -1.0320700000
O       -1.0592970000      -1.6788780000      -0.4545070000
N        0.1433690000       0.5698820000      -0.5810070000
S        1.0474460000       0.4367080000       0.6979990000
O        0.5420560000      -0.3905840000       1.7508840000
O        1.5700000000       1.7270050000       1.0304550000
C        2.5165290000      -0.4803910000       0.0486390000
F        3.0853260000       0.1830030000      -0.9546910000
F        2.1717360000      -1.6888460000      -0.3866040000
F        3.4141560000      -0.6225150000       1.0227250000
C       -2.5136170000       0.4825570000      -0.3218040000
F       -2.6090950000       1.7286460000      -0.7780450000
F       -2.4497270000       0.5235260000       1.0060100000
F       -3.6151980000      -0.1800030000      -0.6714250000
C       -3.7424060000       3.2998250000       3.9547010000
C       -2.8851680000       4.4673610000       4.0393290000
N       -2.2070200000       5.3910730000       4.1062050000
H       -3.6928950000       2.7419590000       4.8894980000
H       -4.7703720000       3.6138260000       3.7753190000
H       -3.4113150000       2.6622360000       3.1353220000
C       -0.2491390000       3.3163070000      -3.1130070000
C        0.3606950000       4.4241260000      -3.8243430000
N        0.8430980000       5.3006170000      -4.3870620000
H        0.3887730000       2.4363260000      -3.1918200000
H       -0.3725480000       3.5802570000      -2.0629640000
H       -1.2241300000       3.0959840000      -3.5470280000
C       -2.1886890000      -4.0117860000       4.3675790000
C       -0.8586110000      -3.4321770000       4.3778260000
N        0.1936220000      -2.9735450000       4.3859110000
H       -2.1674230000      -4.9833270000       4.8606990000
H       -2.8779440000      -3.3534720000       4.8958190000
H       -2.5250270000      -4.1360520000       3.3385220000
C        4.4783440000       1.3707330000      -3.5778890000
C        3.5351700000       2.4466610000      -3.8186400000
N        2.7890100000       3.2978570000      -4.0091980000
H        4.3435820000       0.9863770000      -2.5671370000
H        4.3078830000       0.5683810000      -4.2952880000
H        5.4956730000       1.7450120000      -3.6896060000
C        2.5567210000       5.0416420000      -1.0881950000
C        3.9492160000       5.3317760000      -1.3744440000
N        5.0508600000       5.5612590000      -1.6009830000
H        2.1880720000       5.7326020000      -0.3304470000
H        1.9661170000       5.1534710000      -1.9971340000
H        2.4645510000       4.0197730000      -0.7210270000
*
%compound
NewStep
! wB97X-D3 def2-TZVP def2/J RIJCOSX TightSCF DEFGRID3 Opt Freq
%cpcm
  smd true
  SMDsolvent "Acetonitrile"
end
%freq
  Temp 298.15
  Pressure 1.0
  QuasiRRHO true
end
%geom
  MaxIter 200
  Convergence tight
end
StepEnd
NewStep
! wB97X-D3 def2-TZVPD def2/J RIJCOSX TightSCF DEFGRID3 Hirshfeld
%cpcm
  smd true
  SMDsolvent "Acetonitrile"
end
* xyzfile 0 2 R5EOX_A05_OX_Compound_1.xyz
StepEnd
End
